c --- [ banner ] -------------------------------------------------------------
c 
c CaDiCaL Radically Simplified CDCL SAT Solver
c Copyright (c) 2016-2021 A. Biere, M. Fleury, N. Froleyks
c 
c Version 1.5.2 ca9bff05c11bde5eae4912f9932871d1527e61d8
c g++ (GCC) 9.3.0 -Wall -Wextra -O3 -DNDEBUG
c Sun May 1 02:23:23 EDT 2022 Linux gra-login1 3.10.0-1160.59.1.el7.x86_64 x86_64
c 
c --- [ limit ] --------------------------------------------------------------
c 
c setting conflict limit to 200000 conflicts (due to '200000')
c 
c --- [ parsing input ] ------------------------------------------------------
c 
c reading DIMACS file from '26.cubes778.adj'
c opening file to read '26.cubes778.adj'
c found 'p cnf 5320 924212' header
c parsed 924212 clauses in 8.05 seconds process time
c closing file '26.cubes778.adj'
c after reading 686668124 bytes 654.9 MB
c 
c --- [ options ] ------------------------------------------------------------
c 
c all options are set to their default value
c 
c --- [ solving ] ------------------------------------------------------------
c 
c time measured in process time since initialization
c 
c  seconds   reductions  redundant  irredundant
c          MB    restarts       trail      variables
c           level   conflicts       glue        remaining
c 
c *  8.05 687  0 0   0    0    0  0% 0 923580 3984 75%
c {  8.41 706  0 0   0    0    0  0% 0 923580 3984 75%
c i  8.87 732 61 0   0    7    6 55% 7 923580 3974 75%
c i  8.91 733 56 0   0    9    7 53% 6 923580 3952 74%
c i  8.92 733 53 0   0   11    8 51% 5 923580 3951 74%
c }  8.92 733 52 0   0   13    8 50% 4 923580 3880 73%
c 0  8.92 733 52 0   0   13    8 50% 4 923580 3880 73%
c 
c --- [ writing output ] -----------------------------------------------------
c 
c writing simplified CNF to DIMACS file 'simp/26.cubes778.adj.simp1'
c *  8.92 733 52 0   0   13    8 50% 4 923580 3880 73%
c opening file to write 'simp/26.cubes778.adj.simp1'
c writing 'p cnf 5320 1' header
c closing file 'simp/26.cubes778.adj.simp1'
c after writing 15 bytes 0.0 MB
c wrote 1 clauses in 0.00 seconds process time
c 
c --- [ writing extension ] --------------------------------------------------
c 
c writing extension stack to 'simp/26.cubes778.adj.ext1'
c opening file to write 'simp/26.cubes778.adj.ext1'
c closing file 'simp/26.cubes778.adj.ext1'
c after writing 0 bytes 0.0 MB
c wrote 0 witnesses in 0.00 seconds process time
c 
c --- [ result ] -------------------------------------------------------------
c 
s UNSATISFIABLE
c 
c --- [ run-time profiling ] -------------------------------------------------
c 
c process time taken by individual solving procedures
c (percentage relative to process time for solving)
c 
c         8.05  924.60% parse
c         0.87   99.98% search
c         0.51   59.02% unstable
c         0.36   40.96% lucky
c         0.00    0.00% simplify
c   =================================
c         0.87    9.76% solve
c 
c last line shows process time for solving
c (percentage relative to total process time)
c 
c --- [ statistics ] ---------------------------------------------------------
c 
c chronological:                 8        61.54 %  of conflicts
c conflicts:                    13        14.93    per second
c decisions:                    93       106.84    per second
c fixed:                      1440        27.07 %  of all variables
c learned:                      12        92.31 %  per conflict
c learned_lits:                259       100.00 %  learned literals
c minimized:                     0         0.00 %  learned literals
c shrunken:                    145        55.98 %  learned literals
c minishrunken:                 15         5.79 %  learned literals
c propagations:               3875         0.00 M  per second
c 
c seconds are measured in process time for solving
c 
c --- [ resources ] ----------------------------------------------------------
c 
c total process time since initialization:         8.92    seconds
c total real time since initialization:            8.96    seconds
c maximum resident set size of process:          732.89    MB
c 
c --- [ shutting down ] ------------------------------------------------------
c 
c exit 20
c --- [ banner ] -------------------------------------------------------------
c 
c CaDiCaL Radically Simplified CDCL SAT Solver
c Copyright (c) 2016-2021 A. Biere, M. Fleury, N. Froleyks
c 
c Version 1.5.2 ca9bff05c11bde5eae4912f9932871d1527e61d8
c g++ (GCC) 9.3.0 -Wall -Wextra -O3 -DNDEBUG
c Sun May 1 02:23:23 EDT 2022 Linux gra-login1 3.10.0-1160.59.1.el7.x86_64 x86_64
c 
c --- [ limit ] --------------------------------------------------------------
c 
c setting conflict limit to 200000 conflicts (due to '200000')
c 
c --- [ parsing input ] ------------------------------------------------------
c 
c reading DIMACS file from 'simp/26.cubes778.adj.simp1'
c opening file to read 'simp/26.cubes778.adj.simp1'
c found 'p cnf 5320 1' header
c parsed 1 clauses in 0.00 seconds process time
c closing file 'simp/26.cubes778.adj.simp1'
c after reading 15 bytes 0.0 MB
c 
c --- [ options ] ------------------------------------------------------------
c 
c all options are set to their default value
c 
c --- [ solving ] ------------------------------------------------------------
c 
c time measured in process time since initialization
c 
c  seconds  reductions  redundant irredundant
c         MB    restarts       trail    variables
c          level   conflicts       glue     remaining
c 
c 0  0.00  3  0 0   0    0    0  0% 0    0   0  0%
c 
c --- [ writing output ] -----------------------------------------------------
c 
c writing simplified CNF to DIMACS file 'simp/26.cubes778.adj.simp2'
c *  0.00  3  0 0   0    0    0  0% 0    0   0  0%
c opening file to write 'simp/26.cubes778.adj.simp2'
c writing 'p cnf 5320 1' header
c closing file 'simp/26.cubes778.adj.simp2'
c after writing 15 bytes 0.0 MB
c wrote 1 clauses in 0.00 seconds process time
c 
c --- [ writing extension ] --------------------------------------------------
c 
c writing extension stack to 'simp/26.cubes778.adj.ext2'
c opening file to write 'simp/26.cubes778.adj.ext2'
c closing file 'simp/26.cubes778.adj.ext2'
c after writing 0 bytes 0.0 MB
c wrote 0 witnesses in 0.00 seconds process time
c 
c --- [ result ] -------------------------------------------------------------
c 
s UNSATISFIABLE
c 
c --- [ run-time profiling ] -------------------------------------------------
c 
c process time taken by individual solving procedures
c (percentage relative to process time for solving)
c 
c         0.00  579.67% parse
c         0.00    0.00% search
c         0.00    0.00% simplify
c   =================================
c         0.00    7.00% solve
c 
c last line shows process time for solving
c (percentage relative to total process time)
c 
c --- [ statistics ] ---------------------------------------------------------
c 
c minimized:                     0         0.00 %  learned literals
c shrunken:                      0         0.00 %  learned literals
c minishrunken:                  0         0.00 %  learned literals
c propagations:                  0         0.00 M  per second
c 
c seconds are measured in process time for solving
c 
c --- [ resources ] ----------------------------------------------------------
c 
c total process time since initialization:         0.00    seconds
c total real time since initialization:            0.01    seconds
c maximum resident set size of process:            2.65    MB
c 
c --- [ shutting down ] ------------------------------------------------------
c 
c exit 20
WARNING! DIMACS header mismatch: wrong number of variables.
============================[ Problem Statistics ]=============================
|                                                                             |
|  Number of variables:             0                                         |
|  Number of clauses:               0                                         |
|  Parse time:                   0.00 s                                       |
|  Simplification time:          0.00 s                                       |
|                                                                             |
===============================================================================
Solved by simplification
database reductions   : 0
restarts              : 0
conflicts             : 0              (0 /sec)
decisions             : 0              (-nan % random) (0 /sec)
propagations          : 0              (0 /sec)
conflict literals     : 0              (-nan % deleted)
actual reward         : -nan
Memory used           : 5.00 MB
CPU time              : 0.004075 s

UNSATISFIABLE
